3 
4  59 
5  15 30 45 
6  00 12 18 24 29 33 39 44 49 54 59 
7  04 09 14 19 24 29 34 39 44 49 54 59 
8  04 09 14 19 24 29 34 39 44 49 54 59 
9  04 09 14 20 25 30 37 45 52 
10  00 07 15 23 30 38 45 53 
11  00 08 15 23 30 38 45 53 
12  00 08 15 23 30 38 45 53 
13  00 10 17 25 32 40 47 55 
14  02 10 17 25 32 38 42 47 52 57 
15  02 07 12 17 22 27 32 37 42 47 52 57 
16  02 07 12 17 22 27 32 37 42 47 52 57 
17  02 07 12 17 22 27 32 37 42 47 52 57 
18  02 07 12 19 26 34 40 46 51 57 
19  02 05 10 17 24 32 40 47 55 
20  02 09 17 25 37 52 
21  07 22 37 52 
22  07 22 37 52 
23  07 21 
0 
